/*********************************************
 * OPL 12.6.0.0 Data
 * Author: Adrian Rodriguez Bazaga, Pau Rodriguez Esmerats
 * Creation Date: 06/12/2017 at 23:03:11
 *********************************************/

nNurses=289;
maxConsec=2;
maxPresence=7;
maxHours=5;
minHours=1;
hours=24;
demand= [37 48 70 62 48 70 62 52 55 34 2 14 4 16 6 12 4 7 4 2 57 85 30 72  ];
